problem_generation/data/GISP/train/er_n=66_m=1299_p=0.60_SET2_setparam=100.00_alpha=0.50_684.lp
maximize
OBJ:100x0 + 100x1 + 100x2 + 100x3 + 100x4 + 100x5 + 100x6 + 100x7 + 100x8 + 100x9 + 100x10 + 100x11 + 100x12 + 100x13 + 100x14 + 100x15 + 100x16 + 100x17 + 100x18 + 100x19 + 100x20 + 100x21 + 100x22 + 100x23 + 100x24 + 100x25 + 100x26 + 100x27 + 100x28 + 100x29 + 100x30 + 100x31 + 100x32 + 100x33 + 100x34 + 100x35 + 100x36 + 100x37 + 100x38 + 100x39 + 100x40 + 100x41 + 100x42 + 100x43 + 100x44 + 100x45 + 100x46 + 100x47 + 100x48 + 100x49 + 100x50 + 100x51 + 100x52 + 100x53 + 100x54 + 100x55 + 100x56 + 100x57 + 100x58 + 100x59 + 100x60 + 100x61 + 100x62 + 100x63 + 100x64 + 100x65 - y36_53 - y47_53 - y7_26 - y47_62 - y15_39 - y26_39 - y59_64 - y18_35 - y5_65 - y18_44 - y40_41 - y48_54 - y21_37 - y11_23 - y10_27 - y2_32 - y2_41 - y10_54 - y2_50 - y22_28 - y3_24 - y14_24 - y22_37 - y43_60 - y14_33 - y22_46 - y13_65 - y24_65 - y14_51 - y15_16 - y7_12 - y47_48 - y15_25 - y55_61 - y7_21 - y18_30 - y5_60 - y48_49 - y29_45 - y48_58 - y21_41 - y40_54 - y29_63 - y40_63 - y54_65 - y33_42 - y51_59 - y14_19 - y32_55 - y22_32 - y14_28 - y3_37 - y36_43 - y17_39 - y36_52 - y47_52 - y17_48 - y28_48 - y36_61 - y47_61 - y28_57 - y9_53 - y9_62 - y6_38 - y40_49 - y21_54 - y6_65 - y10_35 - y25_33 - y10_44 - y12_63 - y2_40 - y25_42 - y43_50 - y13_46 - y14_23 - y43_59 - y14_32 - y16_51 - y7_11 - y5_41 - y28_43 - y36_56 - y9_39 - y17_52 - y9_48 - y5_59 - y17_61 - y58_62 - y21_22 - y40_44 - y10_12 - y39_48 - y10_21 - y20_53 - y20_62 - y31_62 - y10_39 - y2_35 - y3_9 - y13_41 - y32_54 - y43_54 - y13_59 - y24_59 - y28_29 - y5_36 - y36_51 - y47_51 - y17_47 - y5_54 - y6_19 - y28_56 - y27_60 - y8_65 - y31_48 - y12_44 - y31_57 - y12_62 - y23_62 - y24_27 - y51_53 - y35_36 - y43_49 - y24_45 - y32_58 - y16_50 - y35_63 - y16_59 - y49_65 - y28_42 - y9_47 - y50_57 - y21_30 - y8_60 - y11_56 - y31_34 - y10_11 - y39_47 - y2_7 - y39_56 - y23_39 - y2_16 - y31_52 - y39_65 - y12_48 - y31_61 - y16_18 - y13_31 - y4_62 - y1_38 - y35_40 - y24_49 - y5_17 - y17_19 - y46_55 - y38_51 - y49_51 - y17_28 - y57_64 - y9_24 - y38_60 - y49_60 - y9_33 - y6_9 - y30_46 - y42_48 - y42_57 - y11_51 - y8_64 - y31_38 - y39_51 - y12_34 - y23_34 - y31_47 - y23_43 - y1_24 - y13_26 - y32_39 - y34_58 - y1_33 - y37_63 - y16_49 - y5_12 - y57_59 - y15_53 - y5_30 - y27_45 - y30_41 - y27_54 - y0_37 - y50_56 - y8_50 - y42_52 - y0_46 - y8_59 - y30_59 - y11_55 - y12_20 - y39_46 - y12_29 - y23_29 - y20_42 - y4_25 - y31_51 - y23_47 - y13_21 - y34_53 - y13_30 - y4_61 - y22_60 - y5_16 - y38_50 - y7_44 - y49_59 - y7_53 - y18_53 - y27_31 - y7_62 - y8_27 - y50_51 - y11_32 - y30_45 - y0_41 - y11_41 - y8_54 - y0_50 - y30_63 - y20_28 - y0_59 - y11_59 - y39_41 - y31_37 - y4_29 - y33_65 - y44_65 - y4_47 - y45_48 - y16_21 - y22_64 - y14_60 - y15_43 - y38_45 - y18_39 - y15_52 - y26_52 - y49_54 - y18_48 - y8_13 - y11_18 - y30_40 - y8_49 - y30_49 - y41_46 - y20_23 - y12_28 - y41_64 - y33_60 - y12_37 - y4_33 - y25_65 - y53_65 - y34_61 - y45_61 - y56_61 - y15_29 - y26_29 - y18_25 - y7_34 - y15_47 - y18_43 - y0_4 - y27_30 - y0_13 - y7_61 - y11_13 - y27_39 - y0_22 - y30_35 - y0_31 - y8_44 - y19_44 - y0_40 - y12_14 - y52_59 - y4_19 - y44_55 - y25_51 - y10_62 - y1_4 - y25_60 - y34_38 - y45_47 - y37_43 - y22_54 - y34_56 - y22_63 - y56_65 - y18_20 - y7_29 - y26_42 - y26_51 - y7_56 - y8_21 - y0_17 - y8_30 - y0_26 - y29_62 - y21_58 - y0_35 - y33_41 - y41_54 - y52_54 - y2_44 - y44_59 - y2_53 - y2_62 - y3_27 - y37_38 - y22_49 - y14_45 - y14_54 - y15_19 - y7_15 - y3_63 - y15_28 - y47_60 - y59_62 - y26_37 - y7_33 - y18_42 - y29_48 - y19_25 - y0_21 - y29_57 - y6_64 - y52_58 - y2_48 - y3_13 - y10_61 - y25_50 - y44_63 - y2_57 - y25_59 - y37_42 - y3_49 - y36_46 - y18_19 - y47_55 - y15_32 - y28_51 - y17_60 - y7_37 - y29_34 - y40_43 - y48_56 - y0_16 - y11_16 - y48_65 - y21_57 - y10_29 - y2_25 - y10_38 - y2_43 - y3_8 - y10_56 - y51_57 - y14_17 - y22_30 - y2_61 - y3_26 - y13_58 - y15_18 - y17_46 - y28_46 - y59_61 - y5_53 - y6_27 - y9_60 - y48_51 - y21_34 - y21_43 - y29_56 - y21_61 - y10_33 - y2_29 - y25_31 - y10_42 - y3_12 - y32_48 - y22_25 - y3_21 - y32_57 - y13_53 - y35_53 - y1_60 - y13_62 - y28_32 - y36_45 - y55_58 - y17_41 - y36_54 - y47_63 - y17_59 - y6_22 - y58_60 - y29_33 - y6_40 - y40_42 - y6_58 - y20_60 - y25_26 - y32_34 - y23_65 - y2_42 - y3_7 - y32_43 - y51_56 - y13_48 - y14_25 - y16_44 - y13_57 - y35_57 - y5_34 - y17_36 - y28_36 - y47_49 - y9_41 - y17_54 - y6_17 - y5_61 - y9_59 - y21_33 - y2_19 - y31_55 - y23_51 - y20_64 - y12_60 - y13_25 - y23_60 - y24_34 - y13_43 - y24_52 - y35_52 - y16_48 - y5_20 - y9_18 - y28_31 - y5_38 - y3_56 - y28_40 - y9_36 - y5_47 - y6_12 - y5_56 - y58_59 - y61_64 - y0_63 - y2_14 - y39_63 - y12_46 - y23_46 - y31_59 - y54_61 - y62_65 - y23_55 - y32_33 - y12_64 - y13_29 - y23_64 - y13_38 - y16_34 - y1_45 - y1_54 - y13_56 - y16_61 - y17_26 - y46_62 - y5_42 - y5_51 - y58_63 - y19_53 - y42_55 - y8_62 - y19_62 - y11_58 - y20_36 - y2_9 - y31_45 - y39_58 - y23_41 - y12_59 - y53_60 - y32_37 - y1_31 - y1_40 - y24_51 - y5_10 - y1_58 - y46_57 - y49_53 - y9_26 - y15_60 - y5_37 - y9_35 - y7_65 - y30_48 - y42_50 - y11_44 - y8_57 - y42_59 - y12_18 - y20_31 - y2_4 - y4_23 - y31_40 - y23_36 - y31_58 - y1_17 - y1_26 - y24_28 - y56_60 - y16_33 - y37_65 - y16_42 - y15_46 - y38_48 - y5_23 - y46_61 - y49_57 - y8_25 - y8_34 - y30_34 - y42_45 - y0_39 - y8_52 - y19_52 - y12_13 - y19_61 - y30_61 - y60_62 - y12_31 - y4_27 - y23_40 - y4_36 - y23_49 - y34_46 - y45_46 - y45_55 - y1_30 - y37_51 - y16_28 - y45_64 - y46_56 - y49_52 - y19_20 - y7_64 - y19_29 - y19_38 - y30_38 - y0_34 - y11_43 - y12_17 - y0_61 - y11_61 - y12_26 - y23_26 - y4_22 - y33_58 - y12_35 - y23_35 - y23_44 - y1_16 - y53_54 - y22_48 - y53_63 - y37_46 - y22_57 - y14_53 - y37_55 - y14_62 - y26_27 - y37_64 - y15_45 - y7_41 - y15_54 - y7_50 - y18_50 - y48_60 - y27_37 - y11_20 - y19_33 - y11_29 - y19_51 - y41_48 - y60_61 - y12_21 - y41_57 - y4_26 - y10_60 - y4_35 - y34_36 - y1_11 - y2_65 - y53_58 - y22_52 - y45_54 - y37_50 - y7_18 - y26_40 - y38_42 - y18_36 - y26_49 - y8_10 - y0_15 - y11_24 - y29_60 - y8_37 - y21_65 - y0_42 - y11_42 - y25_44 - y44_57 - y2_51 - y2_60 - y25_62 - y45_49 - y14_43 - y14_52 - y22_65 - y15_26 - y55_62 - y26_44 - y7_40 - y7_49 - y29_46 - y8_23 - y6_53 - y11_19 - y40_55 - y11_28 - y52_56 - y10_50 - y52_65 - y25_48 - y33_61 - y22_24 - y44_61 - y2_55 - y3_20 - y25_57 - y3_29 - y37_49 - y14_56
 Subject to
C1: x0+x1 <=1 
C2: x0+x4-y0_4 <=1 
C3: x0+x5 <=1 
C4: x0+x6 <=1 
C5: x0+x8 <=1 
C6: x0+x9 <=1 
C7: x0+x11 <=1 
C8: x0+x12 <=1 
C9: x0+x13-y0_13 <=1 
C10: x0+x15-y0_15 <=1 
C11: x0+x16-y0_16 <=1 
C12: x0+x17-y0_17 <=1 
C13: x0+x18 <=1 
C14: x0+x21-y0_21 <=1 
C15: x0+x22-y0_22 <=1 
C16: x0+x24 <=1 
C17: x0+x26-y0_26 <=1 
C18: x0+x28 <=1 
C19: x0+x31-y0_31 <=1 
C20: x0+x34-y0_34 <=1 
C21: x0+x35-y0_35 <=1 
C22: x0+x37-y0_37 <=1 
C23: x0+x39-y0_39 <=1 
C24: x0+x40-y0_40 <=1 
C25: x0+x41-y0_41 <=1 
C26: x0+x42-y0_42 <=1 
C27: x0+x45 <=1 
C28: x0+x46-y0_46 <=1 
C29: x0+x47 <=1 
C30: x0+x48 <=1 
C31: x0+x49 <=1 
C32: x0+x50-y0_50 <=1 
C33: x0+x52 <=1 
C34: x0+x54 <=1 
C35: x0+x57 <=1 
C36: x0+x58 <=1 
C37: x0+x59-y0_59 <=1 
C38: x0+x60 <=1 
C39: x0+x61-y0_61 <=1 
C40: x0+x62 <=1 
C41: x0+x63-y0_63 <=1 
C42: x0+x64 <=1 
C43: x1+x2 <=1 
C44: x1+x3 <=1 
C45: x1+x4-y1_4 <=1 
C46: x1+x6 <=1 
C47: x1+x7 <=1 
C48: x1+x10 <=1 
C49: x1+x11-y1_11 <=1 
C50: x1+x13 <=1 
C51: x1+x14 <=1 
C52: x1+x15 <=1 
C53: x1+x16-y1_16 <=1 
C54: x1+x17-y1_17 <=1 
C55: x1+x18 <=1 
C56: x1+x19 <=1 
C57: x1+x21 <=1 
C58: x1+x24-y1_24 <=1 
C59: x1+x25 <=1 
C60: x1+x26-y1_26 <=1 
C61: x1+x27 <=1 
C62: x1+x28 <=1 
C63: x1+x29 <=1 
C64: x1+x30-y1_30 <=1 
C65: x1+x31-y1_31 <=1 
C66: x1+x33-y1_33 <=1 
C67: x1+x34 <=1 
C68: x1+x36 <=1 
C69: x1+x38-y1_38 <=1 
C70: x1+x39 <=1 
C71: x1+x40-y1_40 <=1 
C72: x1+x41 <=1 
C73: x1+x43 <=1 
C74: x1+x44 <=1 
C75: x1+x45-y1_45 <=1 
C76: x1+x47 <=1 
C77: x1+x48 <=1 
C78: x1+x51 <=1 
C79: x1+x52 <=1 
C80: x1+x54-y1_54 <=1 
C81: x1+x58-y1_58 <=1 
C82: x1+x60-y1_60 <=1 
C83: x1+x61 <=1 
C84: x1+x62 <=1 
C85: x1+x64 <=1 
C86: x1+x65 <=1 
C87: x2+x4-y2_4 <=1 
C88: x2+x6 <=1 
C89: x2+x7-y2_7 <=1 
C90: x2+x9-y2_9 <=1 
C91: x2+x11 <=1 
C92: x2+x13 <=1 
C93: x2+x14-y2_14 <=1 
C94: x2+x16-y2_16 <=1 
C95: x2+x19-y2_19 <=1 
C96: x2+x25-y2_25 <=1 
C97: x2+x28 <=1 
C98: x2+x29-y2_29 <=1 
C99: x2+x31 <=1 
C100: x2+x32-y2_32 <=1 
C101: x2+x33 <=1 
C102: x2+x35-y2_35 <=1 
C103: x2+x38 <=1 
C104: x2+x40-y2_40 <=1 
C105: x2+x41-y2_41 <=1 
C106: x2+x42-y2_42 <=1 
C107: x2+x43-y2_43 <=1 
C108: x2+x44-y2_44 <=1 
C109: x2+x48-y2_48 <=1 
C110: x2+x49 <=1 
C111: x2+x50-y2_50 <=1 
C112: x2+x51-y2_51 <=1 
C113: x2+x53-y2_53 <=1 
C114: x2+x55-y2_55 <=1 
C115: x2+x56 <=1 
C116: x2+x57-y2_57 <=1 
C117: x2+x59 <=1 
C118: x2+x60-y2_60 <=1 
C119: x2+x61-y2_61 <=1 
C120: x2+x62-y2_62 <=1 
C121: x2+x65-y2_65 <=1 
C122: x3+x7-y3_7 <=1 
C123: x3+x8-y3_8 <=1 
C124: x3+x9-y3_9 <=1 
C125: x3+x12-y3_12 <=1 
C126: x3+x13-y3_13 <=1 
C127: x3+x14 <=1 
C128: x3+x17 <=1 
C129: x3+x20-y3_20 <=1 
C130: x3+x21-y3_21 <=1 
C131: x3+x22 <=1 
C132: x3+x23 <=1 
C133: x3+x24-y3_24 <=1 
C134: x3+x25 <=1 
C135: x3+x26-y3_26 <=1 
C136: x3+x27-y3_27 <=1 
C137: x3+x28 <=1 
C138: x3+x29-y3_29 <=1 
C139: x3+x32 <=1 
C140: x3+x33 <=1 
C141: x3+x36 <=1 
C142: x3+x37-y3_37 <=1 
C143: x3+x38 <=1 
C144: x3+x41 <=1 
C145: x3+x43 <=1 
C146: x3+x45 <=1 
C147: x3+x46 <=1 
C148: x3+x48 <=1 
C149: x3+x49-y3_49 <=1 
C150: x3+x50 <=1 
C151: x3+x54 <=1 
C152: x3+x55 <=1 
C153: x3+x56-y3_56 <=1 
C154: x3+x57 <=1 
C155: x3+x60 <=1 
C156: x3+x63-y3_63 <=1 
C157: x3+x64 <=1 
C158: x3+x65 <=1 
C159: x4+x5 <=1 
C160: x4+x6 <=1 
C161: x4+x7 <=1 
C162: x4+x15 <=1 
C163: x4+x17 <=1 
C164: x4+x18 <=1 
C165: x4+x19-y4_19 <=1 
C166: x4+x20 <=1 
C167: x4+x21 <=1 
C168: x4+x22-y4_22 <=1 
C169: x4+x23-y4_23 <=1 
C170: x4+x25-y4_25 <=1 
C171: x4+x26-y4_26 <=1 
C172: x4+x27-y4_27 <=1 
C173: x4+x29-y4_29 <=1 
C174: x4+x30 <=1 
C175: x4+x32 <=1 
C176: x4+x33-y4_33 <=1 
C177: x4+x35-y4_35 <=1 
C178: x4+x36-y4_36 <=1 
C179: x4+x37 <=1 
C180: x4+x38 <=1 
C181: x4+x39 <=1 
C182: x4+x40 <=1 
C183: x4+x41 <=1 
C184: x4+x42 <=1 
C185: x4+x47-y4_47 <=1 
C186: x4+x55 <=1 
C187: x4+x56 <=1 
C188: x4+x58 <=1 
C189: x4+x60 <=1 
C190: x4+x61-y4_61 <=1 
C191: x4+x62-y4_62 <=1 
C192: x4+x64 <=1 
C193: x4+x65 <=1 
C194: x5+x9 <=1 
C195: x5+x10-y5_10 <=1 
C196: x5+x12-y5_12 <=1 
C197: x5+x14 <=1 
C198: x5+x16-y5_16 <=1 
C199: x5+x17-y5_17 <=1 
C200: x5+x20-y5_20 <=1 
C201: x5+x21 <=1 
C202: x5+x23-y5_23 <=1 
C203: x5+x28 <=1 
C204: x5+x29 <=1 
C205: x5+x30-y5_30 <=1 
C206: x5+x31 <=1 
C207: x5+x34-y5_34 <=1 
C208: x5+x36-y5_36 <=1 
C209: x5+x37-y5_37 <=1 
C210: x5+x38-y5_38 <=1 
C211: x5+x39 <=1 
C212: x5+x40 <=1 
C213: x5+x41-y5_41 <=1 
C214: x5+x42-y5_42 <=1 
C215: x5+x43 <=1 
C216: x5+x44 <=1 
C217: x5+x45 <=1 
C218: x5+x47-y5_47 <=1 
C219: x5+x51-y5_51 <=1 
C220: x5+x53-y5_53 <=1 
C221: x5+x54-y5_54 <=1 
C222: x5+x56-y5_56 <=1 
C223: x5+x59-y5_59 <=1 
C224: x5+x60-y5_60 <=1 
C225: x5+x61-y5_61 <=1 
C226: x5+x63 <=1 
C227: x5+x65-y5_65 <=1 
C228: x6+x8 <=1 
C229: x6+x9-y6_9 <=1 
C230: x6+x11 <=1 
C231: x6+x12-y6_12 <=1 
C232: x6+x13 <=1 
C233: x6+x14 <=1 
C234: x6+x15 <=1 
C235: x6+x17-y6_17 <=1 
C236: x6+x18 <=1 
C237: x6+x19-y6_19 <=1 
C238: x6+x21 <=1 
C239: x6+x22-y6_22 <=1 
C240: x6+x25 <=1 
C241: x6+x27-y6_27 <=1 
C242: x6+x31 <=1 
C243: x6+x32 <=1 
C244: x6+x36 <=1 
C245: x6+x37 <=1 
C246: x6+x38-y6_38 <=1 
C247: x6+x40-y6_40 <=1 
C248: x6+x47 <=1 
C249: x6+x48 <=1 
C250: x6+x49 <=1 
C251: x6+x50 <=1 
C252: x6+x52 <=1 
C253: x6+x53-y6_53 <=1 
C254: x6+x55 <=1 
C255: x6+x56 <=1 
C256: x6+x57 <=1 
C257: x6+x58-y6_58 <=1 
C258: x6+x61 <=1 
C259: x6+x62 <=1 
C260: x6+x64-y6_64 <=1 
C261: x6+x65-y6_65 <=1 
C262: x7+x11-y7_11 <=1 
C263: x7+x12-y7_12 <=1 
C264: x7+x15-y7_15 <=1 
C265: x7+x18-y7_18 <=1 
C266: x7+x20 <=1 
C267: x7+x21-y7_21 <=1 
C268: x7+x24 <=1 
C269: x7+x26-y7_26 <=1 
C270: x7+x28 <=1 
C271: x7+x29-y7_29 <=1 
C272: x7+x33-y7_33 <=1 
C273: x7+x34-y7_34 <=1 
C274: x7+x37-y7_37 <=1 
C275: x7+x38 <=1 
C276: x7+x39 <=1 
C277: x7+x40-y7_40 <=1 
C278: x7+x41-y7_41 <=1 
C279: x7+x42 <=1 
C280: x7+x44-y7_44 <=1 
C281: x7+x45 <=1 
C282: x7+x48 <=1 
C283: x7+x49-y7_49 <=1 
C284: x7+x50-y7_50 <=1 
C285: x7+x51 <=1 
C286: x7+x52 <=1 
C287: x7+x53-y7_53 <=1 
C288: x7+x54 <=1 
C289: x7+x55 <=1 
C290: x7+x56-y7_56 <=1 
C291: x7+x57 <=1 
C292: x7+x60 <=1 
C293: x7+x61-y7_61 <=1 
C294: x7+x62-y7_62 <=1 
C295: x7+x64-y7_64 <=1 
C296: x7+x65-y7_65 <=1 
C297: x8+x10-y8_10 <=1 
C298: x8+x13-y8_13 <=1 
C299: x8+x15 <=1 
C300: x8+x16 <=1 
C301: x8+x19 <=1 
C302: x8+x21-y8_21 <=1 
C303: x8+x22 <=1 
C304: x8+x23-y8_23 <=1 
C305: x8+x25-y8_25 <=1 
C306: x8+x27-y8_27 <=1 
C307: x8+x28 <=1 
C308: x8+x30-y8_30 <=1 
C309: x8+x33 <=1 
C310: x8+x34-y8_34 <=1 
C311: x8+x37-y8_37 <=1 
C312: x8+x38 <=1 
C313: x8+x43 <=1 
C314: x8+x44-y8_44 <=1 
C315: x8+x45 <=1 
C316: x8+x48 <=1 
C317: x8+x49-y8_49 <=1 
C318: x8+x50-y8_50 <=1 
C319: x8+x51 <=1 
C320: x8+x52-y8_52 <=1 
C321: x8+x54-y8_54 <=1 
C322: x8+x57-y8_57 <=1 
C323: x8+x59-y8_59 <=1 
C324: x8+x60-y8_60 <=1 
C325: x8+x61 <=1 
C326: x8+x62-y8_62 <=1 
C327: x8+x64-y8_64 <=1 
C328: x8+x65-y8_65 <=1 
C329: x9+x10 <=1 
C330: x9+x18-y9_18 <=1 
C331: x9+x20 <=1 
C332: x9+x21 <=1 
C333: x9+x22 <=1 
C334: x9+x24-y9_24 <=1 
C335: x9+x25 <=1 
C336: x9+x26-y9_26 <=1 
C337: x9+x30 <=1 
C338: x9+x31 <=1 
C339: x9+x33-y9_33 <=1 
C340: x9+x34 <=1 
C341: x9+x35-y9_35 <=1 
C342: x9+x36-y9_36 <=1 
C343: x9+x39-y9_39 <=1 
C344: x9+x40 <=1 
C345: x9+x41-y9_41 <=1 
C346: x9+x43 <=1 
C347: x9+x47-y9_47 <=1 
C348: x9+x48-y9_48 <=1 
C349: x9+x49 <=1 
C350: x9+x51 <=1 
C351: x9+x53-y9_53 <=1 
C352: x9+x56 <=1 
C353: x9+x57 <=1 
C354: x9+x59-y9_59 <=1 
C355: x9+x60-y9_60 <=1 
C356: x9+x61 <=1 
C357: x9+x62-y9_62 <=1 
C358: x9+x64 <=1 
C359: x10+x11-y10_11 <=1 
C360: x10+x12-y10_12 <=1 
C361: x10+x13 <=1 
C362: x10+x14 <=1 
C363: x10+x17 <=1 
C364: x10+x21-y10_21 <=1 
C365: x10+x22 <=1 
C366: x10+x26 <=1 
C367: x10+x27-y10_27 <=1 
C368: x10+x29-y10_29 <=1 
C369: x10+x33-y10_33 <=1 
C370: x10+x35-y10_35 <=1 
C371: x10+x36 <=1 
C372: x10+x38-y10_38 <=1 
C373: x10+x39-y10_39 <=1 
C374: x10+x41 <=1 
C375: x10+x42-y10_42 <=1 
C376: x10+x44-y10_44 <=1 
C377: x10+x47 <=1 
C378: x10+x48 <=1 
C379: x10+x50-y10_50 <=1 
C380: x10+x51 <=1 
C381: x10+x53 <=1 
C382: x10+x54-y10_54 <=1 
C383: x10+x55 <=1 
C384: x10+x56-y10_56 <=1 
C385: x10+x59 <=1 
C386: x10+x60-y10_60 <=1 
C387: x10+x61-y10_61 <=1 
C388: x10+x62-y10_62 <=1 
C389: x10+x63 <=1 
C390: x11+x12 <=1 
C391: x11+x13-y11_13 <=1 
C392: x11+x16-y11_16 <=1 
C393: x11+x17 <=1 
C394: x11+x18-y11_18 <=1 
C395: x11+x19-y11_19 <=1 
C396: x11+x20-y11_20 <=1 
C397: x11+x23-y11_23 <=1 
C398: x11+x24-y11_24 <=1 
C399: x11+x28-y11_28 <=1 
C400: x11+x29-y11_29 <=1 
C401: x11+x30 <=1 
C402: x11+x32-y11_32 <=1 
C403: x11+x34 <=1 
C404: x11+x35 <=1 
C405: x11+x37 <=1 
C406: x11+x38 <=1 
C407: x11+x41-y11_41 <=1 
C408: x11+x42-y11_42 <=1 
C409: x11+x43-y11_43 <=1 
C410: x11+x44-y11_44 <=1 
C411: x11+x46 <=1 
C412: x11+x47 <=1 
C413: x11+x51-y11_51 <=1 
C414: x11+x54 <=1 
C415: x11+x55-y11_55 <=1 
C416: x11+x56-y11_56 <=1 
C417: x11+x58-y11_58 <=1 
C418: x11+x59-y11_59 <=1 
C419: x11+x61-y11_61 <=1 
C420: x11+x62 <=1 
C421: x11+x65 <=1 
C422: x12+x13-y12_13 <=1 
C423: x12+x14-y12_14 <=1 
C424: x12+x17-y12_17 <=1 
C425: x12+x18-y12_18 <=1 
C426: x12+x19 <=1 
C427: x12+x20-y12_20 <=1 
C428: x12+x21-y12_21 <=1 
C429: x12+x25 <=1 
C430: x12+x26-y12_26 <=1 
C431: x12+x28-y12_28 <=1 
C432: x12+x29-y12_29 <=1 
C433: x12+x31-y12_31 <=1 
C434: x12+x34-y12_34 <=1 
C435: x12+x35-y12_35 <=1 
C436: x12+x37-y12_37 <=1 
C437: x12+x38 <=1 
C438: x12+x41 <=1 
C439: x12+x44-y12_44 <=1 
C440: x12+x46-y12_46 <=1 
C441: x12+x47 <=1 
C442: x12+x48-y12_48 <=1 
C443: x12+x51 <=1 
C444: x12+x55 <=1 
C445: x12+x56 <=1 
C446: x12+x57 <=1 
C447: x12+x59-y12_59 <=1 
C448: x12+x60-y12_60 <=1 
C449: x12+x62-y12_62 <=1 
C450: x12+x63-y12_63 <=1 
C451: x12+x64-y12_64 <=1 
C452: x13+x14 <=1 
C453: x13+x15 <=1 
C454: x13+x18 <=1 
C455: x13+x19 <=1 
C456: x13+x20 <=1 
C457: x13+x21-y13_21 <=1 
C458: x13+x24 <=1 
C459: x13+x25-y13_25 <=1 
C460: x13+x26-y13_26 <=1 
C461: x13+x27 <=1 
C462: x13+x29-y13_29 <=1 
C463: x13+x30-y13_30 <=1 
C464: x13+x31-y13_31 <=1 
C465: x13+x32 <=1 
C466: x13+x35 <=1 
C467: x13+x38-y13_38 <=1 
C468: x13+x40 <=1 
C469: x13+x41-y13_41 <=1 
C470: x13+x43-y13_43 <=1 
C471: x13+x44 <=1 
C472: x13+x45 <=1 
C473: x13+x46-y13_46 <=1 
C474: x13+x47 <=1 
C475: x13+x48-y13_48 <=1 
C476: x13+x49 <=1 
C477: x13+x52 <=1 
C478: x13+x53-y13_53 <=1 
C479: x13+x54 <=1 
C480: x13+x55 <=1 
C481: x13+x56-y13_56 <=1 
C482: x13+x57-y13_57 <=1 
C483: x13+x58-y13_58 <=1 
C484: x13+x59-y13_59 <=1 
C485: x13+x60 <=1 
C486: x13+x61 <=1 
C487: x13+x62-y13_62 <=1 
C488: x13+x64 <=1 
C489: x13+x65-y13_65 <=1 
C490: x14+x15 <=1 
C491: x14+x17-y14_17 <=1 
C492: x14+x19-y14_19 <=1 
C493: x14+x22 <=1 
C494: x14+x23-y14_23 <=1 
C495: x14+x24-y14_24 <=1 
C496: x14+x25-y14_25 <=1 
C497: x14+x26 <=1 
C498: x14+x28-y14_28 <=1 
C499: x14+x29 <=1 
C500: x14+x31 <=1 
C501: x14+x32-y14_32 <=1 
C502: x14+x33-y14_33 <=1 
C503: x14+x34 <=1 
C504: x14+x36 <=1 
C505: x14+x41 <=1 
C506: x14+x43-y14_43 <=1 
C507: x14+x44 <=1 
C508: x14+x45-y14_45 <=1 
C509: x14+x47 <=1 
C510: x14+x48 <=1 
C511: x14+x51-y14_51 <=1 
C512: x14+x52-y14_52 <=1 
C513: x14+x53-y14_53 <=1 
C514: x14+x54-y14_54 <=1 
C515: x14+x55 <=1 
C516: x14+x56-y14_56 <=1 
C517: x14+x57 <=1 
C518: x14+x58 <=1 
C519: x14+x60-y14_60 <=1 
C520: x14+x61 <=1 
C521: x14+x62-y14_62 <=1 
C522: x14+x63 <=1 
C523: x14+x65 <=1 
C524: x15+x16-y15_16 <=1 
C525: x15+x17 <=1 
C526: x15+x18-y15_18 <=1 
C527: x15+x19-y15_19 <=1 
C528: x15+x20 <=1 
C529: x15+x21 <=1 
C530: x15+x24 <=1 
C531: x15+x25-y15_25 <=1 
C532: x15+x26-y15_26 <=1 
C533: x15+x28-y15_28 <=1 
C534: x15+x29-y15_29 <=1 
C535: x15+x31 <=1 
C536: x15+x32-y15_32 <=1 
C537: x15+x33 <=1 
C538: x15+x34 <=1 
C539: x15+x35 <=1 
C540: x15+x37 <=1 
C541: x15+x38 <=1 
C542: x15+x39-y15_39 <=1 
C543: x15+x43-y15_43 <=1 
C544: x15+x44 <=1 
C545: x15+x45-y15_45 <=1 
C546: x15+x46-y15_46 <=1 
C547: x15+x47-y15_47 <=1 
C548: x15+x49 <=1 
C549: x15+x52-y15_52 <=1 
C550: x15+x53-y15_53 <=1 
C551: x15+x54-y15_54 <=1 
C552: x15+x57 <=1 
C553: x15+x58 <=1 
C554: x15+x60-y15_60 <=1 
C555: x15+x61 <=1 
C556: x16+x17 <=1 
C557: x16+x18-y16_18 <=1 
C558: x16+x19 <=1 
C559: x16+x21-y16_21 <=1 
C560: x16+x25 <=1 
C561: x16+x27 <=1 
C562: x16+x28-y16_28 <=1 
C563: x16+x29 <=1 
C564: x16+x30 <=1 
C565: x16+x31 <=1 
C566: x16+x32 <=1 
C567: x16+x33-y16_33 <=1 
C568: x16+x34-y16_34 <=1 
C569: x16+x38 <=1 
C570: x16+x39 <=1 
C571: x16+x42-y16_42 <=1 
C572: x16+x43 <=1 
C573: x16+x44-y16_44 <=1 
C574: x16+x46 <=1 
C575: x16+x47 <=1 
C576: x16+x48-y16_48 <=1 
C577: x16+x49-y16_49 <=1 
C578: x16+x50-y16_50 <=1 
C579: x16+x51-y16_51 <=1 
C580: x16+x52 <=1 
C581: x16+x56 <=1 
C582: x16+x59-y16_59 <=1 
C583: x16+x61-y16_61 <=1 
C584: x16+x62 <=1 
C585: x16+x64 <=1 
C586: x16+x65 <=1 
C587: x17+x18 <=1 
C588: x17+x19-y17_19 <=1 
C589: x17+x21 <=1 
C590: x17+x24 <=1 
C591: x17+x25 <=1 
C592: x17+x26-y17_26 <=1 
C593: x17+x27 <=1 
C594: x17+x28-y17_28 <=1 
C595: x17+x29 <=1 
C596: x17+x31 <=1 
C597: x17+x33 <=1 
C598: x17+x36-y17_36 <=1 
C599: x17+x39-y17_39 <=1 
C600: x17+x41-y17_41 <=1 
C601: x17+x43 <=1 
C602: x17+x46-y17_46 <=1 
C603: x17+x47-y17_47 <=1 
C604: x17+x48-y17_48 <=1 
C605: x17+x50 <=1 
C606: x17+x51 <=1 
C607: x17+x52-y17_52 <=1 
C608: x17+x54-y17_54 <=1 
C609: x17+x55 <=1 
C610: x17+x57 <=1 
C611: x17+x58 <=1 
C612: x17+x59-y17_59 <=1 
C613: x17+x60-y17_60 <=1 
C614: x17+x61-y17_61 <=1 
C615: x18+x19-y18_19 <=1 
C616: x18+x20-y18_20 <=1 
C617: x18+x23 <=1 
C618: x18+x24 <=1 
C619: x18+x25-y18_25 <=1 
C620: x18+x28 <=1 
C621: x18+x29 <=1 
C622: x18+x30-y18_30 <=1 
C623: x18+x31 <=1 
C624: x18+x34 <=1 
C625: x18+x35-y18_35 <=1 
C626: x18+x36-y18_36 <=1 
C627: x18+x37 <=1 
C628: x18+x39-y18_39 <=1 
C629: x18+x42-y18_42 <=1 
C630: x18+x43-y18_43 <=1 
C631: x18+x44-y18_44 <=1 
C632: x18+x45 <=1 
C633: x18+x48-y18_48 <=1 
C634: x18+x49 <=1 
C635: x18+x50-y18_50 <=1 
C636: x18+x52 <=1 
C637: x18+x53-y18_53 <=1 
C638: x18+x55 <=1 
C639: x18+x56 <=1 
C640: x18+x57 <=1 
C641: x18+x58 <=1 
C642: x18+x59 <=1 
C643: x18+x60 <=1 
C644: x18+x61 <=1 
C645: x18+x63 <=1 
C646: x18+x65 <=1 
C647: x19+x20-y19_20 <=1 
C648: x19+x21 <=1 
C649: x19+x22 <=1 
C650: x19+x23 <=1 
C651: x19+x24 <=1 
C652: x19+x25-y19_25 <=1 
C653: x19+x27 <=1 
C654: x19+x28 <=1 
C655: x19+x29-y19_29 <=1 
C656: x19+x31 <=1 
C657: x19+x32 <=1 
C658: x19+x33-y19_33 <=1 
C659: x19+x37 <=1 
C660: x19+x38-y19_38 <=1 
C661: x19+x39 <=1 
C662: x19+x40 <=1 
C663: x19+x42 <=1 
C664: x19+x44-y19_44 <=1 
C665: x19+x50 <=1 
C666: x19+x51-y19_51 <=1 
C667: x19+x52-y19_52 <=1 
C668: x19+x53-y19_53 <=1 
C669: x19+x56 <=1 
C670: x19+x57 <=1 
C671: x19+x60 <=1 
C672: x19+x61-y19_61 <=1 
C673: x19+x62-y19_62 <=1 
C674: x19+x63 <=1 
C675: x19+x64 <=1 
C676: x20+x21 <=1 
C677: x20+x23-y20_23 <=1 
C678: x20+x25 <=1 
C679: x20+x27 <=1 
C680: x20+x28-y20_28 <=1 
C681: x20+x30 <=1 
C682: x20+x31-y20_31 <=1 
C683: x20+x32 <=1 
C684: x20+x33 <=1 
C685: x20+x34 <=1 
C686: x20+x36-y20_36 <=1 
C687: x20+x40 <=1 
C688: x20+x42-y20_42 <=1 
C689: x20+x43 <=1 
C690: x20+x45 <=1 
C691: x20+x50 <=1 
C692: x20+x51 <=1 
C693: x20+x52 <=1 
C694: x20+x53-y20_53 <=1 
C695: x20+x54 <=1 
C696: x20+x57 <=1 
C697: x20+x60-y20_60 <=1 
C698: x20+x61 <=1 
C699: x20+x62-y20_62 <=1 
C700: x20+x64-y20_64 <=1 
C701: x20+x65 <=1 
C702: x21+x22-y21_22 <=1 
C703: x21+x26 <=1 
C704: x21+x29 <=1 
C705: x21+x30-y21_30 <=1 
C706: x21+x31 <=1 
C707: x21+x32 <=1 
C708: x21+x33-y21_33 <=1 
C709: x21+x34-y21_34 <=1 
C710: x21+x37-y21_37 <=1 
C711: x21+x38 <=1 
C712: x21+x39 <=1 
C713: x21+x41-y21_41 <=1 
C714: x21+x42 <=1 
C715: x21+x43-y21_43 <=1 
C716: x21+x46 <=1 
C717: x21+x48 <=1 
C718: x21+x54-y21_54 <=1 
C719: x21+x57-y21_57 <=1 
C720: x21+x58-y21_58 <=1 
C721: x21+x59 <=1 
C722: x21+x61-y21_61 <=1 
C723: x21+x65-y21_65 <=1 
C724: x22+x24-y22_24 <=1 
C725: x22+x25-y22_25 <=1 
C726: x22+x26 <=1 
C727: x22+x27 <=1 
C728: x22+x28-y22_28 <=1 
C729: x22+x29 <=1 
C730: x22+x30-y22_30 <=1 
C731: x22+x32-y22_32 <=1 
C732: x22+x33 <=1 
C733: x22+x34 <=1 
C734: x22+x35 <=1 
C735: x22+x36 <=1 
C736: x22+x37-y22_37 <=1 
C737: x22+x42 <=1 
C738: x22+x45 <=1 
C739: x22+x46-y22_46 <=1 
C740: x22+x48-y22_48 <=1 
C741: x22+x49-y22_49 <=1 
C742: x22+x51 <=1 
C743: x22+x52-y22_52 <=1 
C744: x22+x53 <=1 
C745: x22+x54-y22_54 <=1 
C746: x22+x57-y22_57 <=1 
C747: x22+x60-y22_60 <=1 
C748: x22+x61 <=1 
C749: x22+x63-y22_63 <=1 
C750: x22+x64-y22_64 <=1 
C751: x22+x65-y22_65 <=1 
C752: x23+x24 <=1 
C753: x23+x26-y23_26 <=1 
C754: x23+x29-y23_29 <=1 
C755: x23+x30 <=1 
C756: x23+x34-y23_34 <=1 
C757: x23+x35-y23_35 <=1 
C758: x23+x36-y23_36 <=1 
C759: x23+x38 <=1 
C760: x23+x39-y23_39 <=1 
C761: x23+x40-y23_40 <=1 
C762: x23+x41-y23_41 <=1 
C763: x23+x43-y23_43 <=1 
C764: x23+x44-y23_44 <=1 
C765: x23+x45 <=1 
C766: x23+x46-y23_46 <=1 
C767: x23+x47-y23_47 <=1 
C768: x23+x49-y23_49 <=1 
C769: x23+x50 <=1 
C770: x23+x51-y23_51 <=1 
C771: x23+x55-y23_55 <=1 
C772: x23+x57 <=1 
C773: x23+x59 <=1 
C774: x23+x60-y23_60 <=1 
C775: x23+x62-y23_62 <=1 
C776: x23+x63 <=1 
C777: x23+x64-y23_64 <=1 
C778: x23+x65-y23_65 <=1 
C779: x24+x26 <=1 
C780: x24+x27-y24_27 <=1 
C781: x24+x28-y24_28 <=1 
C782: x24+x30 <=1 
C783: x24+x31 <=1 
C784: x24+x33 <=1 
C785: x24+x34-y24_34 <=1 
C786: x24+x35 <=1 
C787: x24+x37 <=1 
C788: x24+x40 <=1 
C789: x24+x41 <=1 
C790: x24+x43 <=1 
C791: x24+x44 <=1 
C792: x24+x45-y24_45 <=1 
C793: x24+x49-y24_49 <=1 
C794: x24+x50 <=1 
C795: x24+x51-y24_51 <=1 
C796: x24+x52-y24_52 <=1 
C797: x24+x59-y24_59 <=1 
C798: x24+x61 <=1 
C799: x24+x63 <=1 
C800: x24+x65-y24_65 <=1 
C801: x25+x26-y25_26 <=1 
C802: x25+x27 <=1 
C803: x25+x31-y25_31 <=1 
C804: x25+x33-y25_33 <=1 
C805: x25+x34 <=1 
C806: x25+x35 <=1 
C807: x25+x36 <=1 
C808: x25+x37 <=1 
C809: x25+x41 <=1 
C810: x25+x42-y25_42 <=1 
C811: x25+x44-y25_44 <=1 
C812: x25+x47 <=1 
C813: x25+x48-y25_48 <=1 
C814: x25+x49 <=1 
C815: x25+x50-y25_50 <=1 
C816: x25+x51-y25_51 <=1 
C817: x25+x52 <=1 
C818: x25+x57-y25_57 <=1 
C819: x25+x58 <=1 
C820: x25+x59-y25_59 <=1 
C821: x25+x60-y25_60 <=1 
C822: x25+x62-y25_62 <=1 
C823: x25+x63 <=1 
C824: x25+x64 <=1 
C825: x25+x65-y25_65 <=1 
C826: x26+x27-y26_27 <=1 
C827: x26+x29-y26_29 <=1 
C828: x26+x30 <=1 
C829: x26+x31 <=1 
C830: x26+x33 <=1 
C831: x26+x35 <=1 
C832: x26+x37-y26_37 <=1 
C833: x26+x38 <=1 
C834: x26+x39-y26_39 <=1 
C835: x26+x40-y26_40 <=1 
C836: x26+x41 <=1 
C837: x26+x42-y26_42 <=1 
C838: x26+x44-y26_44 <=1 
C839: x26+x47 <=1 
C840: x26+x49-y26_49 <=1 
C841: x26+x51-y26_51 <=1 
C842: x26+x52-y26_52 <=1 
C843: x26+x53 <=1 
C844: x26+x55 <=1 
C845: x26+x56 <=1 
C846: x26+x57 <=1 
C847: x26+x58 <=1 
C848: x26+x60 <=1 
C849: x26+x62 <=1 
C850: x26+x63 <=1 
C851: x26+x65 <=1 
C852: x27+x30-y27_30 <=1 
C853: x27+x31-y27_31 <=1 
C854: x27+x34 <=1 
C855: x27+x35 <=1 
C856: x27+x37-y27_37 <=1 
C857: x27+x39-y27_39 <=1 
C858: x27+x40 <=1 
C859: x27+x45-y27_45 <=1 
C860: x27+x51 <=1 
C861: x27+x53 <=1 
C862: x27+x54-y27_54 <=1 
C863: x27+x55 <=1 
C864: x27+x60-y27_60 <=1 
C865: x27+x61 <=1 
C866: x27+x62 <=1 
C867: x28+x29-y28_29 <=1 
C868: x28+x31-y28_31 <=1 
C869: x28+x32-y28_32 <=1 
C870: x28+x36-y28_36 <=1 
C871: x28+x39 <=1 
C872: x28+x40-y28_40 <=1 
C873: x28+x42-y28_42 <=1 
C874: x28+x43-y28_43 <=1 
C875: x28+x45 <=1 
C876: x28+x46-y28_46 <=1 
C877: x28+x48-y28_48 <=1 
C878: x28+x49 <=1 
C879: x28+x50 <=1 
C880: x28+x51-y28_51 <=1 
C881: x28+x52 <=1 
C882: x28+x54 <=1 
C883: x28+x56-y28_56 <=1 
C884: x28+x57-y28_57 <=1 
C885: x28+x59 <=1 
C886: x28+x65 <=1 
C887: x29+x32 <=1 
C888: x29+x33-y29_33 <=1 
C889: x29+x34-y29_34 <=1 
C890: x29+x35 <=1 
C891: x29+x36 <=1 
C892: x29+x37 <=1 
C893: x29+x38 <=1 
C894: x29+x40 <=1 
C895: x29+x42 <=1 
C896: x29+x45-y29_45 <=1 
C897: x29+x46-y29_46 <=1 
C898: x29+x48-y29_48 <=1 
C899: x29+x50 <=1 
C900: x29+x52 <=1 
C901: x29+x53 <=1 
C902: x29+x54 <=1 
C903: x29+x55 <=1 
C904: x29+x56-y29_56 <=1 
C905: x29+x57-y29_57 <=1 
C906: x29+x60-y29_60 <=1 
C907: x29+x62-y29_62 <=1 
C908: x29+x63-y29_63 <=1 
C909: x29+x64 <=1 
C910: x30+x32 <=1 
C911: x30+x34-y30_34 <=1 
C912: x30+x35-y30_35 <=1 
C913: x30+x38-y30_38 <=1 
C914: x30+x40-y30_40 <=1 
C915: x30+x41-y30_41 <=1 
C916: x30+x42 <=1 
C917: x30+x43 <=1 
C918: x30+x45-y30_45 <=1 
C919: x30+x46-y30_46 <=1 
C920: x30+x48-y30_48 <=1 
C921: x30+x49-y30_49 <=1 
C922: x30+x50 <=1 
C923: x30+x52 <=1 
C924: x30+x55 <=1 
C925: x30+x56 <=1 
C926: x30+x57 <=1 
C927: x30+x59-y30_59 <=1 
C928: x30+x60 <=1 
C929: x30+x61-y30_61 <=1 
C930: x30+x63-y30_63 <=1 
C931: x30+x64 <=1 
C932: x31+x34-y31_34 <=1 
C933: x31+x37-y31_37 <=1 
C934: x31+x38-y31_38 <=1 
C935: x31+x40-y31_40 <=1 
C936: x31+x41 <=1 
C937: x31+x42 <=1 
C938: x31+x44 <=1 
C939: x31+x45-y31_45 <=1 
C940: x31+x47-y31_47 <=1 
C941: x31+x48-y31_48 <=1 
C942: x31+x51-y31_51 <=1 
C943: x31+x52-y31_52 <=1 
C944: x31+x55-y31_55 <=1 
C945: x31+x57-y31_57 <=1 
C946: x31+x58-y31_58 <=1 
C947: x31+x59-y31_59 <=1 
C948: x31+x61-y31_61 <=1 
C949: x31+x62-y31_62 <=1 
C950: x31+x63 <=1 
C951: x31+x64 <=1 
C952: x31+x65 <=1 
C953: x32+x33-y32_33 <=1 
C954: x32+x34-y32_34 <=1 
C955: x32+x36 <=1 
C956: x32+x37-y32_37 <=1 
C957: x32+x38 <=1 
C958: x32+x39-y32_39 <=1 
C959: x32+x40 <=1 
C960: x32+x43-y32_43 <=1 
C961: x32+x48-y32_48 <=1 
C962: x32+x49 <=1 
C963: x32+x50 <=1 
C964: x32+x52 <=1 
C965: x32+x54-y32_54 <=1 
C966: x32+x55-y32_55 <=1 
C967: x32+x57-y32_57 <=1 
C968: x32+x58-y32_58 <=1 
C969: x32+x59 <=1 
C970: x32+x60 <=1 
C971: x32+x61 <=1 
C972: x32+x63 <=1 
C973: x32+x64 <=1 
C974: x33+x35 <=1 
C975: x33+x36 <=1 
C976: x33+x38 <=1 
C977: x33+x40 <=1 
C978: x33+x41-y33_41 <=1 
C979: x33+x42-y33_42 <=1 
C980: x33+x43 <=1 
C981: x33+x44 <=1 
C982: x33+x45 <=1 
C983: x33+x47 <=1 
C984: x33+x49 <=1 
C985: x33+x51 <=1 
C986: x33+x52 <=1 
C987: x33+x56 <=1 
C988: x33+x57 <=1 
C989: x33+x58-y33_58 <=1 
C990: x33+x59 <=1 
C991: x33+x60-y33_60 <=1 
C992: x33+x61-y33_61 <=1 
C993: x33+x65-y33_65 <=1 
C994: x34+x36-y34_36 <=1 
C995: x34+x37 <=1 
C996: x34+x38-y34_38 <=1 
C997: x34+x41 <=1 
C998: x34+x46-y34_46 <=1 
C999: x34+x47 <=1 
C1000: x34+x48 <=1 
C1001: x34+x51 <=1 
C1002: x34+x52 <=1 
C1003: x34+x53-y34_53 <=1 
C1004: x34+x55 <=1 
C1005: x34+x56-y34_56 <=1 
C1006: x34+x57 <=1 
C1007: x34+x58-y34_58 <=1 
C1008: x34+x60 <=1 
C1009: x34+x61-y34_61 <=1 
C1010: x34+x65 <=1 
C1011: x35+x36-y35_36 <=1 
C1012: x35+x37 <=1 
C1013: x35+x38 <=1 
C1014: x35+x39 <=1 
C1015: x35+x40-y35_40 <=1 
C1016: x35+x46 <=1 
C1017: x35+x49 <=1 
C1018: x35+x50 <=1 
C1019: x35+x51 <=1 
C1020: x35+x52-y35_52 <=1 
C1021: x35+x53-y35_53 <=1 
C1022: x35+x55 <=1 
C1023: x35+x57-y35_57 <=1 
C1024: x35+x59 <=1 
C1025: x35+x62 <=1 
C1026: x35+x63-y35_63 <=1 
C1027: x35+x65 <=1 
C1028: x36+x43-y36_43 <=1 
C1029: x36+x45-y36_45 <=1 
C1030: x36+x46-y36_46 <=1 
C1031: x36+x47 <=1 
C1032: x36+x48 <=1 
C1033: x36+x49 <=1 
C1034: x36+x51-y36_51 <=1 
C1035: x36+x52-y36_52 <=1 
C1036: x36+x53-y36_53 <=1 
C1037: x36+x54-y36_54 <=1 
C1038: x36+x55 <=1 
C1039: x36+x56-y36_56 <=1 
C1040: x36+x59 <=1 
C1041: x36+x61-y36_61 <=1 
C1042: x37+x38-y37_38 <=1 
C1043: x37+x40 <=1 
C1044: x37+x42-y37_42 <=1 
C1045: x37+x43-y37_43 <=1 
C1046: x37+x46-y37_46 <=1 
C1047: x37+x49-y37_49 <=1 
C1048: x37+x50-y37_50 <=1 
C1049: x37+x51-y37_51 <=1 
C1050: x37+x52 <=1 
C1051: x37+x55-y37_55 <=1 
C1052: x37+x56 <=1 
C1053: x37+x63-y37_63 <=1 
C1054: x37+x64-y37_64 <=1 
C1055: x37+x65-y37_65 <=1 
C1056: x38+x39 <=1 
C1057: x38+x40 <=1 
C1058: x38+x41 <=1 
C1059: x38+x42-y38_42 <=1 
C1060: x38+x45-y38_45 <=1 
C1061: x38+x48-y38_48 <=1 
C1062: x38+x49 <=1 
C1063: x38+x50-y38_50 <=1 
C1064: x38+x51-y38_51 <=1 
C1065: x38+x54 <=1 
C1066: x38+x55 <=1 
C1067: x38+x57 <=1 
C1068: x38+x58 <=1 
C1069: x38+x60-y38_60 <=1 
C1070: x38+x61 <=1 
C1071: x38+x62 <=1 
C1072: x38+x65 <=1 
C1073: x39+x40 <=1 
C1074: x39+x41-y39_41 <=1 
C1075: x39+x42 <=1 
C1076: x39+x45 <=1 
C1077: x39+x46-y39_46 <=1 
C1078: x39+x47-y39_47 <=1 
C1079: x39+x48-y39_48 <=1 
C1080: x39+x50 <=1 
C1081: x39+x51-y39_51 <=1 
C1082: x39+x52 <=1 
C1083: x39+x53 <=1 
C1084: x39+x55 <=1 
C1085: x39+x56-y39_56 <=1 
C1086: x39+x58-y39_58 <=1 
C1087: x39+x59 <=1 
C1088: x39+x60 <=1 
C1089: x39+x61 <=1 
C1090: x39+x63-y39_63 <=1 
C1091: x39+x64 <=1 
C1092: x39+x65-y39_65 <=1 
C1093: x40+x41-y40_41 <=1 
C1094: x40+x42-y40_42 <=1 
C1095: x40+x43-y40_43 <=1 
C1096: x40+x44-y40_44 <=1 
C1097: x40+x46 <=1 
C1098: x40+x49-y40_49 <=1 
C1099: x40+x50 <=1 
C1100: x40+x51 <=1 
C1101: x40+x52 <=1 
C1102: x40+x54-y40_54 <=1 
C1103: x40+x55-y40_55 <=1 
C1104: x40+x58 <=1 
C1105: x40+x61 <=1 
C1106: x40+x62 <=1 
C1107: x40+x63-y40_63 <=1 
C1108: x41+x42 <=1 
C1109: x41+x46-y41_46 <=1 
C1110: x41+x48-y41_48 <=1 
C1111: x41+x49 <=1 
C1112: x41+x54-y41_54 <=1 
C1113: x41+x56 <=1 
C1114: x41+x57-y41_57 <=1 
C1115: x41+x58 <=1 
C1116: x41+x60 <=1 
C1117: x41+x62 <=1 
C1118: x41+x64-y41_64 <=1 
C1119: x41+x65 <=1 
C1120: x42+x45-y42_45 <=1 
C1121: x42+x48-y42_48 <=1 
C1122: x42+x49 <=1 
C1123: x42+x50-y42_50 <=1 
C1124: x42+x51 <=1 
C1125: x42+x52-y42_52 <=1 
C1126: x42+x54 <=1 
C1127: x42+x55-y42_55 <=1 
C1128: x42+x56 <=1 
C1129: x42+x57-y42_57 <=1 
C1130: x42+x58 <=1 
C1131: x42+x59-y42_59 <=1 
C1132: x42+x60 <=1 
C1133: x42+x61 <=1 
C1134: x42+x64 <=1 
C1135: x42+x65 <=1 
C1136: x43+x45 <=1 
C1137: x43+x47 <=1 
C1138: x43+x49-y43_49 <=1 
C1139: x43+x50-y43_50 <=1 
C1140: x43+x51 <=1 
C1141: x43+x52 <=1 
C1142: x43+x53 <=1 
C1143: x43+x54-y43_54 <=1 
C1144: x43+x59-y43_59 <=1 
C1145: x43+x60-y43_60 <=1 
C1146: x43+x61 <=1 
C1147: x43+x62 <=1 
C1148: x43+x65 <=1 
C1149: x44+x47 <=1 
C1150: x44+x51 <=1 
C1151: x44+x53 <=1 
C1152: x44+x55-y44_55 <=1 
C1153: x44+x56 <=1 
C1154: x44+x57-y44_57 <=1 
C1155: x44+x58 <=1 
C1156: x44+x59-y44_59 <=1 
C1157: x44+x60 <=1 
C1158: x44+x61-y44_61 <=1 
C1159: x44+x62 <=1 
C1160: x44+x63-y44_63 <=1 
C1161: x44+x64 <=1 
C1162: x44+x65-y44_65 <=1 
C1163: x45+x46-y45_46 <=1 
C1164: x45+x47-y45_47 <=1 
C1165: x45+x48-y45_48 <=1 
C1166: x45+x49-y45_49 <=1 
C1167: x45+x52 <=1 
C1168: x45+x54-y45_54 <=1 
C1169: x45+x55-y45_55 <=1 
C1170: x45+x56 <=1 
C1171: x45+x57 <=1 
C1172: x45+x59 <=1 
C1173: x45+x61-y45_61 <=1 
C1174: x45+x62 <=1 
C1175: x45+x63 <=1 
C1176: x45+x64-y45_64 <=1 
C1177: x46+x48 <=1 
C1178: x46+x55-y46_55 <=1 
C1179: x46+x56-y46_56 <=1 
C1180: x46+x57-y46_57 <=1 
C1181: x46+x58 <=1 
C1182: x46+x59 <=1 
C1183: x46+x61-y46_61 <=1 
C1184: x46+x62-y46_62 <=1 
C1185: x46+x64 <=1 
C1186: x46+x65 <=1 
C1187: x47+x48-y47_48 <=1 
C1188: x47+x49-y47_49 <=1 
C1189: x47+x51-y47_51 <=1 
C1190: x47+x52-y47_52 <=1 
C1191: x47+x53-y47_53 <=1 
C1192: x47+x54 <=1 
C1193: x47+x55-y47_55 <=1 
C1194: x47+x57 <=1 
C1195: x47+x59 <=1 
C1196: x47+x60-y47_60 <=1 
C1197: x47+x61-y47_61 <=1 
C1198: x47+x62-y47_62 <=1 
C1199: x47+x63-y47_63 <=1 
C1200: x48+x49-y48_49 <=1 
C1201: x48+x50 <=1 
C1202: x48+x51-y48_51 <=1 
C1203: x48+x54-y48_54 <=1 
C1204: x48+x56-y48_56 <=1 
C1205: x48+x58-y48_58 <=1 
C1206: x48+x59 <=1 
C1207: x48+x60-y48_60 <=1 
C1208: x48+x61 <=1 
C1209: x48+x62 <=1 
C1210: x48+x63 <=1 
C1211: x48+x65-y48_65 <=1 
C1212: x49+x50 <=1 
C1213: x49+x51-y49_51 <=1 
C1214: x49+x52-y49_52 <=1 
C1215: x49+x53-y49_53 <=1 
C1216: x49+x54-y49_54 <=1 
C1217: x49+x56 <=1 
C1218: x49+x57-y49_57 <=1 
C1219: x49+x58 <=1 
C1220: x49+x59-y49_59 <=1 
C1221: x49+x60-y49_60 <=1 
C1222: x49+x61 <=1 
C1223: x49+x62 <=1 
C1224: x49+x63 <=1 
C1225: x49+x64 <=1 
C1226: x49+x65-y49_65 <=1 
C1227: x50+x51-y50_51 <=1 
C1228: x50+x52 <=1 
C1229: x50+x53 <=1 
C1230: x50+x55 <=1 
C1231: x50+x56-y50_56 <=1 
C1232: x50+x57-y50_57 <=1 
C1233: x50+x58 <=1 
C1234: x50+x59 <=1 
C1235: x50+x60 <=1 
C1236: x50+x65 <=1 
C1237: x51+x52 <=1 
C1238: x51+x53-y51_53 <=1 
C1239: x51+x55 <=1 
C1240: x51+x56-y51_56 <=1 
C1241: x51+x57-y51_57 <=1 
C1242: x51+x59-y51_59 <=1 
C1243: x51+x61 <=1 
C1244: x51+x63 <=1 
C1245: x51+x64 <=1 
C1246: x52+x54-y52_54 <=1 
C1247: x52+x56-y52_56 <=1 
C1248: x52+x57 <=1 
C1249: x52+x58-y52_58 <=1 
C1250: x52+x59-y52_59 <=1 
C1251: x52+x60 <=1 
C1252: x52+x62 <=1 
C1253: x52+x65-y52_65 <=1 
C1254: x53+x54-y53_54 <=1 
C1255: x53+x55 <=1 
C1256: x53+x58-y53_58 <=1 
C1257: x53+x59 <=1 
C1258: x53+x60-y53_60 <=1 
C1259: x53+x61 <=1 
C1260: x53+x63-y53_63 <=1 
C1261: x53+x65-y53_65 <=1 
C1262: x54+x55 <=1 
C1263: x54+x56 <=1 
C1264: x54+x60 <=1 
C1265: x54+x61-y54_61 <=1 
C1266: x54+x62 <=1 
C1267: x54+x63 <=1 
C1268: x54+x65-y54_65 <=1 
C1269: x55+x58-y55_58 <=1 
C1270: x55+x60 <=1 
C1271: x55+x61-y55_61 <=1 
C1272: x55+x62-y55_62 <=1 
C1273: x55+x63 <=1 
C1274: x56+x58 <=1 
C1275: x56+x60-y56_60 <=1 
C1276: x56+x61-y56_61 <=1 
C1277: x56+x64 <=1 
C1278: x56+x65-y56_65 <=1 
C1279: x57+x58 <=1 
C1280: x57+x59-y57_59 <=1 
C1281: x57+x60 <=1 
C1282: x57+x64-y57_64 <=1 
C1283: x58+x59-y58_59 <=1 
C1284: x58+x60-y58_60 <=1 
C1285: x58+x61 <=1 
C1286: x58+x62-y58_62 <=1 
C1287: x58+x63-y58_63 <=1 
C1288: x58+x65 <=1 
C1289: x59+x61-y59_61 <=1 
C1290: x59+x62-y59_62 <=1 
C1291: x59+x63 <=1 
C1292: x59+x64-y59_64 <=1 
C1293: x60+x61-y60_61 <=1 
C1294: x60+x62-y60_62 <=1 
C1295: x60+x64 <=1 
C1296: x61+x63 <=1 
C1297: x61+x64-y61_64 <=1 
C1298: x62+x64 <=1 
C1299: x62+x65-y62_65 <=1 

binary
x0
x1
x2
x3
x4
x5
x6
x7
x8
x9
x10
x11
x12
x13
x14
x15
x16
x17
x18
x19
x20
x21
x22
x23
x24
x25
x26
x27
x28
x29
x30
x31
x32
x33
x34
x35
x36
x37
x38
x39
x40
x41
x42
x43
x44
x45
x46
x47
x48
x49
x50
x51
x52
x53
x54
x55
x56
x57
x58
x59
x60
x61
x62
x63
x64
x65
