problem_generation/data/GISP/train/er_n=66_m=1299_p=0.60_SET2_setparam=100.00_alpha=0.50_684.sol
objective value:                                 1272
x2                                                  1 	(obj:100)
x8                                                  1 	(obj:100)
x9                                                  1 	(obj:100)
x12                                                 1 	(obj:100)
x14                                                 1 	(obj:100)
x17                                                 1 	(obj:100)
x23                                                 1 	(obj:100)
x32                                                 1 	(obj:100)
x37                                                 1 	(obj:100)
x42                                                 1 	(obj:100)
x46                                                 1 	(obj:100)
x53                                                 1 	(obj:100)
x62                                                 1 	(obj:100)
y2_32                                               1 	(obj:-1)
y9_53                                               1 	(obj:-1)
y9_62                                               1 	(obj:-1)
y14_23                                              1 	(obj:-1)
y14_32                                              1 	(obj:-1)
y12_62                                              1 	(obj:-1)
y23_62                                              1 	(obj:-1)
y12_37                                              1 	(obj:-1)
y12_14                                              1 	(obj:-1)
y2_53                                               1 	(obj:-1)
y2_62                                               1 	(obj:-1)
y37_42                                              1 	(obj:-1)
y14_17                                              1 	(obj:-1)
y17_46                                              1 	(obj:-1)
y2_42                                               1 	(obj:-1)
y2_14                                               1 	(obj:-1)
y12_46                                              1 	(obj:-1)
y23_46                                              1 	(obj:-1)
y46_62                                              1 	(obj:-1)
y8_62                                               1 	(obj:-1)
y2_9                                                1 	(obj:-1)
y32_37                                              1 	(obj:-1)
y12_17                                              1 	(obj:-1)
y37_46                                              1 	(obj:-1)
y14_53                                              1 	(obj:-1)
y14_62                                              1 	(obj:-1)
y8_37                                               1 	(obj:-1)
y8_23                                               1 	(obj:-1)
